DIMACS_lns/graph-1000-620.col
p edge 1000 1833
e 1 290
e 1 559
e 1 930
e 1 526
e 1 187
e 2 987
e 2 108
e 2 682
e 2 923
e 2 93
e 3 897
e 3 588
e 3 341
e 4 753
e 4 133
e 4 697
e 5 89
e 5 827
e 5 544
e 5 694
e 5 790
e 5 842
e 7 179
e 7 864
e 7 318
e 8 768
e 8 714
e 8 75
e 9 38
e 9 309
e 9 348
e 9 213
e 10 859
e 10 475
e 10 605
e 12 840
e 12 901
e 12 943
e 12 768
e 12 764
e 12 704
e 12 188
e 13 301
e 13 459
e 13 90
e 13 222
e 13 349
e 13 990
e 13 973
e 14 669
e 14 864
e 14 462
e 14 663
e 15 20
e 15 380
e 15 368
e 15 935
e 15 774
e 15 102
e 17 713
e 17 456
e 17 219
e 17 203
e 17 485
e 17 305
e 18 254
e 18 511
e 18 759
e 18 802
e 18 719
e 18 689
e 18 769
e 18 627
e 18 275
e 18 287
e 19 156
e 19 838
e 19 87
e 20 224
e 20 364
e 20 303
e 20 592
e 20 386
e 20 246
e 21 907
e 21 56
e 21 963
e 21 240
e 21 176
e 21 447
e 22 624
e 22 866
e 22 466
e 22 457
e 24 891
e 24 596
e 24 136
e 24 348
e 24 723
e 25 304
e 25 674
e 25 742
e 25 559
e 25 132
e 27 449
e 27 462
e 27 285
e 29 98
e 29 522
e 29 451
e 29 570
e 29 851
e 29 161
e 29 159
e 29 70
e 30 447
e 30 446
e 30 467
e 31 102
e 31 607
e 31 315
e 31 536
e 32 770
e 32 758
e 32 972
e 32 923
e 32 940
e 32 637
e 33 350
e 33 191
e 33 48
e 34 614
e 34 529
e 34 70
e 34 730
e 36 618
e 36 713
e 36 415
e 36 845
e 37 460
e 37 774
e 37 802
e 37 676
e 37 539
e 37 595
e 37 959
e 37 993
e 38 42
e 38 509
e 38 345
e 38 303
e 39 870
e 39 42
e 39 652
e 40 456
e 40 558
e 40 319
e 41 925
e 41 649
e 41 76
e 41 582
e 41 415
e 41 906
e 42 124
e 42 465
e 42 141
e 42 44
e 43 244
e 43 665
e 43 601
e 43 991
e 43 669
e 44 256
e 44 619
e 46 860
e 46 778
e 46 84
e 46 842
e 46 388
e 46 355
e 47 141
e 47 856
e 47 71
e 47 643
e 47 77
e 47 689
e 47 626
e 48 149
e 48 298
e 48 425
e 48 168
e 48 369
e 49 366
e 49 802
e 49 332
e 49 195
e 50 704
e 50 117
e 50 444
e 50 923
e 50 521
e 50 239
e 51 484
e 51 205
e 51 245
e 51 206
e 53 233
e 53 198
e 53 474
e 53 646
e 53 950
e 54 236
e 54 803
e 54 731
e 54 528
e 54 72
e 54 654
e 54 107
e 54 291
e 54 161
e 56 973
e 56 233
e 56 127
e 56 943
e 56 761
e 56 787
e 58 192
e 58 313
e 58 537
e 58 468
e 58 792
e 58 940
e 58 790
e 59 110
e 59 231
e 59 550
e 59 118
e 59 421
e 59 659
e 60 646
e 60 76
e 60 88
e 60 191
e 60 861
e 61 219
e 61 207
e 61 569
e 61 601
e 61 939
e 61 355
e 61 528
e 61 253
e 62 653
e 62 518
e 62 549
e 62 641
e 62 123
e 62 508
e 66 723
e 66 581
e 66 656
e 66 417
e 67 693
e 67 378
e 67 387
e 67 347
e 67 468
e 67 796
e 67 592
e 68 108
e 68 890
e 68 521
e 70 708
e 70 100
e 70 731
e 70 713
e 70 305
e 71 248
e 71 476
e 71 545
e 72 734
e 72 238
e 72 861
e 72 898
e 72 534
e 74 742
e 74 380
e 74 545
e 75 685
e 75 476
e 75 194
e 75 997
e 76 287
e 76 390
e 76 619
e 76 625
e 76 759
e 77 574
e 77 287
e 77 189
e 77 256
e 77 980
e 78 489
e 78 604
e 78 254
e 78 746
e 78 982
e 78 358
e 79 690
e 79 98
e 79 405
e 79 370
e 79 402
e 79 427
e 79 584
e 81 631
e 81 856
e 81 181
e 81 804
e 82 885
e 82 221
e 82 843
e 83 380
e 83 879
e 83 186
e 83 674
e 83 235
e 83 855
e 84 756
e 84 499
e 84 671
e 84 171
e 84 272
e 84 492
e 85 534
e 85 737
e 85 630
e 85 413
e 85 349
e 85 348
e 86 884
e 86 378
e 86 471
e 86 543
e 86 369
e 86 668
e 87 508
e 87 409
e 88 537
e 88 577
e 88 746
e 88 560
e 88 443
e 88 305
e 89 907
e 89 496
e 90 638
e 90 242
e 92 737
e 92 701
e 92 185
e 93 792
e 93 838
e 93 620
e 94 796
e 94 358
e 94 972
e 94 604
e 95 525
e 95 517
e 95 595
e 96 133
e 96 857
e 96 179
e 97 399
e 97 260
e 97 130
e 98 684
e 98 911
e 98 637
e 98 613
e 98 297
e 98 816
e 99 261
e 99 108
e 99 557
e 100 531
e 100 803
e 100 720
e 100 956
e 101 962
e 101 996
e 101 238
e 101 790
e 101 731
e 102 622
e 102 564
e 102 691
e 103 967
e 103 560
e 103 380
e 103 273
e 104 467
e 104 940
e 104 459
e 106 842
e 106 210
e 106 538
e 107 925
e 107 116
e 107 747
e 108 188
e 108 764
e 108 260
e 108 644
e 109 933
e 109 336
e 109 191
e 109 494
e 109 826
e 109 355
e 110 499
e 110 783
e 111 251
e 111 613
e 111 558
e 112 975
e 112 831
e 112 808
e 114 993
e 114 529
e 114 895
e 116 886
e 116 572
e 116 466
e 116 218
e 116 552
e 116 541
e 116 504
e 116 734
e 116 748
e 116 499
e 117 737
e 117 733
e 117 244
e 117 187
e 117 671
e 118 796
e 118 707
e 118 220
e 118 923
e 119 254
e 119 994
e 119 418
e 119 807
e 120 497
e 120 573
e 120 804
e 120 460
e 120 615
e 120 701
e 121 650
e 121 697
e 121 326
e 122 123
e 122 407
e 122 374
e 122 996
e 122 719
e 122 663
e 123 881
e 123 241
e 123 236
e 124 958
e 124 595
e 124 260
e 124 222
e 126 415
e 126 352
e 126 843
e 127 825
e 127 343
e 129 350
e 129 896
e 129 388
e 129 258
e 129 152
e 129 451
e 130 258
e 130 707
e 130 406
e 132 256
e 132 152
e 132 297
e 132 581
e 133 687
e 133 438
e 133 214
e 136 187
e 136 706
e 136 277
e 141 653
e 141 651
e 141 536
e 146 543
e 146 753
e 146 614
e 146 184
e 146 643
e 146 741
e 146 352
e 146 599
e 149 815
e 149 394
e 150 461
e 150 675
e 150 910
e 152 690
e 152 475
e 152 757
e 152 319
e 152 857
e 153 492
e 153 947
e 153 161
e 153 999
e 153 972
e 153 778
e 154 758
e 154 163
e 154 286
e 156 206
e 156 474
e 156 889
e 156 260
e 156 723
e 156 667
e 156 968
e 158 205
e 158 444
e 158 934
e 158 719
e 158 791
e 159 218
e 159 826
e 159 952
e 160 637
e 160 923
e 160 636
e 160 851
e 160 277
e 161 273
e 161 990
e 162 587
e 162 196
e 162 855
e 162 528
e 163 898
e 163 846
e 163 167
e 163 510
e 164 586
e 164 758
e 164 537
e 164 656
e 165 255
e 165 704
e 165 512
e 165 529
e 166 801
e 166 947
e 166 931
e 166 549
e 166 491
e 167 413
e 167 281
e 168 915
e 168 828
e 168 937
e 168 409
e 170 947
e 170 922
e 170 295
e 170 736
e 170 642
e 171 275
e 171 778
e 171 788
e 172 761
e 172 196
e 172 988
e 172 746
e 173 873
e 173 881
e 173 890
e 173 460
e 174 759
e 174 469
e 174 601
e 174 812
e 174 387
e 174 305
e 175 972
e 175 328
e 175 731
e 175 673
e 176 817
e 176 201
e 177 478
e 177 742
e 177 189
e 177 999
e 177 866
e 179 682
e 179 730
e 179 908
e 181 241
e 181 653
e 181 999
e 181 730
e 181 427
e 181 952
e 181 358
e 184 242
e 184 585
e 184 941
e 185 835
e 185 517
e 185 923
e 186 387
e 186 746
e 187 794
e 187 933
e 187 222
e 187 855
e 187 414
e 187 314
e 187 856
e 188 652
e 188 341
e 189 853
e 189 972
e 189 869
e 189 366
e 190 496
e 190 626
e 190 214
e 190 444
e 190 290
e 190 557
e 191 281
e 191 340
e 191 352
e 191 441
e 192 386
e 192 328
e 192 1000
e 192 438
e 192 524
e 192 669
e 194 222
e 194 341
e 194 843
e 195 629
e 195 588
e 195 889
e 195 284
e 196 298
e 196 708
e 198 808
e 198 480
e 198 982
e 199 917
e 199 569
e 199 739
e 200 645
e 200 330
e 200 738
e 201 235
e 201 461
e 201 485
e 201 833
e 202 656
e 202 298
e 202 872
e 202 929
e 203 232
e 203 751
e 203 401
e 204 324
e 204 353
e 204 815
e 205 722
e 205 952
e 205 210
e 205 260
e 205 294
e 205 474
e 205 973
e 206 783
e 206 680
e 206 441
e 206 218
e 207 800
e 207 425
e 208 690
e 208 923
e 208 364
e 208 234
e 208 581
e 209 839
e 209 543
e 209 855
e 210 399
e 210 973
e 210 615
e 211 336
e 211 557
e 211 875
e 211 728
e 212 755
e 212 330
e 212 746
e 212 377
e 212 688
e 213 411
e 213 629
e 213 864
e 214 681
e 214 618
e 214 694
e 216 733
e 216 716
e 216 421
e 218 370
e 218 231
e 218 915
e 218 582
e 219 255
e 219 489
e 219 364
e 219 600
e 220 596
e 220 850
e 220 722
e 220 342
e 220 936
e 221 482
e 221 538
e 221 587
e 221 642
e 221 339
e 221 561
e 221 480
e 222 777
e 222 343
e 222 994
e 222 914
e 222 441
e 223 989
e 223 716
e 223 996
e 223 342
e 223 680
e 223 470
e 223 560
e 223 776
e 223 326
e 224 451
e 224 483
e 224 792
e 224 256
e 224 551
e 226 850
e 226 478
e 226 801
e 226 443
e 226 932
e 228 549
e 228 894
e 228 995
e 230 840
e 230 939
e 230 553
e 230 349
e 231 570
e 231 467
e 231 334
e 231 445
e 232 572
e 232 411
e 232 236
e 232 560
e 233 540
e 233 443
e 233 486
e 234 792
e 234 643
e 235 585
e 235 977
e 235 990
e 235 256
e 236 746
e 238 813
e 238 474
e 239 464
e 239 614
e 239 382
e 239 248
e 239 997
e 239 680
e 240 569
e 240 832
e 241 615
e 241 287
e 241 861
e 241 971
e 241 357
e 242 552
e 242 504
e 242 559
e 242 338
e 242 631
e 243 665
e 243 780
e 243 754
e 244 931
e 244 291
e 245 752
e 245 649
e 245 590
e 246 401
e 246 290
e 246 934
e 246 949
e 248 651
e 248 953
e 249 459
e 249 884
e 249 509
e 249 471
e 249 674
e 249 661
e 250 840
e 250 576
e 250 721
e 250 273
e 250 957
e 251 345
e 251 499
e 251 954
e 251 552
e 253 786
e 253 645
e 254 956
e 254 947
e 255 940
e 255 946
e 255 560
e 255 574
e 256 482
e 256 616
e 256 652
e 258 466
e 258 287
e 258 365
e 258 299
e 258 460
e 259 546
e 259 631
e 259 332
e 259 630
e 259 580
e 260 833
e 260 629
e 260 670
e 260 666
e 260 371
e 261 884
e 261 831
e 262 584
e 262 701
e 262 343
e 262 977
e 262 417
e 262 485
e 262 808
e 263 880
e 263 866
e 263 663
e 263 424
e 263 720
e 263 654
e 263 828
e 266 722
e 266 866
e 266 921
e 269 512
e 269 530
e 269 272
e 269 590
e 270 780
e 270 791
e 270 830
e 270 962
e 271 573
e 271 693
e 271 645
e 271 368
e 272 707
e 272 777
e 273 780
e 273 993
e 273 425
e 275 982
e 275 354
e 275 996
e 275 823
e 276 569
e 276 725
e 276 995
e 276 382
e 276 731
e 276 510
e 277 541
e 277 641
e 277 900
e 277 842
e 279 996
e 279 645
e 279 791
e 279 837
e 280 619
e 280 844
e 280 961
e 280 661
e 281 808
e 281 946
e 281 547
e 281 972
e 284 294
e 284 888
e 284 830
e 284 826
e 284 993
e 284 794
e 284 326
e 285 582
e 285 999
e 285 643
e 286 727
e 286 507
e 286 401
e 287 963
e 287 592
e 287 347
e 287 662
e 290 776
e 290 943
e 290 485
e 290 1000
e 290 373
e 290 667
e 290 471
e 291 879
e 291 787
e 291 874
e 293 664
e 293 814
e 293 895
e 293 416
e 294 447
e 294 827
e 295 456
e 295 357
e 297 441
e 297 357
e 297 347
e 297 336
e 297 382
e 298 680
e 298 414
e 299 963
e 299 478
e 299 559
e 299 558
e 299 996
e 299 935
e 299 486
e 301 426
e 301 616
e 301 365
e 303 401
e 303 446
e 304 689
e 304 655
e 305 765
e 305 591
e 308 351
e 308 917
e 308 834
e 308 850
e 308 431
e 309 528
e 309 411
e 313 584
e 313 832
e 313 471
e 314 934
e 314 901
e 314 595
e 314 545
e 315 454
e 315 699
e 315 476
e 315 673
e 316 461
e 316 725
e 316 923
e 316 701
e 316 994
e 317 370
e 317 526
e 317 861
e 318 731
e 318 906
e 318 572
e 319 923
e 319 542
e 319 718
e 322 663
e 322 755
e 322 908
e 322 324
e 324 636
e 326 813
e 326 680
e 326 693
e 326 682
e 326 354
e 326 462
e 328 616
e 328 504
e 330 817
e 330 752
e 331 354
e 331 671
e 331 963
e 332 413
e 332 549
e 332 551
e 332 856
e 332 693
e 334 574
e 334 673
e 336 745
e 337 386
e 337 850
e 337 678
e 337 629
e 337 919
e 338 993
e 338 959
e 338 449
e 339 624
e 339 518
e 339 674
e 340 842
e 340 677
e 340 407
e 340 785
e 340 873
e 340 405
e 340 495
e 341 918
e 341 657
e 341 894
e 341 874
e 342 966
e 343 369
e 343 752
e 343 715
e 343 646
e 343 815
e 343 558
e 343 899
e 345 990
e 345 550
e 347 542
e 347 938
e 347 376
e 347 790
e 347 908
e 348 922
e 348 990
e 348 987
e 348 916
e 349 370
e 350 677
e 350 562
e 351 754
e 351 842
e 351 641
e 351 445
e 352 511
e 352 418
e 352 1000
e 352 753
e 352 763
e 353 918
e 353 638
e 353 911
e 354 873
e 354 483
e 354 456
e 354 497
e 355 777
e 355 642
e 357 959
e 357 576
e 358 755
e 363 701
e 363 578
e 363 413
e 364 541
e 364 680
e 364 843
e 365 870
e 365 680
e 365 546
e 366 990
e 366 706
e 366 379
e 366 515
e 368 718
e 369 530
e 369 529
e 370 979
e 371 613
e 371 466
e 371 786
e 371 584
e 373 727
e 373 592
e 373 382
e 374 625
e 374 671
e 374 665
e 376 414
e 376 499
e 377 545
e 377 527
e 378 790
e 378 891
e 379 745
e 379 550
e 380 466
e 380 796
e 380 441
e 382 836
e 382 489
e 382 733
e 384 482
e 384 641
e 384 686
e 386 423
e 386 431
e 386 850
e 386 528
e 386 626
e 387 961
e 388 575
e 390 953
e 390 540
e 390 713
e 390 935
e 394 421
e 394 464
e 396 550
e 396 764
e 396 716
e 397 734
e 397 979
e 397 902
e 399 985
e 399 823
e 401 501
e 401 595
e 401 558
e 402 590
e 402 901
e 402 704
e 405 985
e 405 644
e 405 850
e 405 546
e 406 730
e 406 733
e 407 887
e 407 569
e 409 650
e 410 691
e 410 484
e 410 438
e 410 431
e 411 650
e 411 968
e 411 534
e 413 897
e 414 746
e 414 989
e 414 807
e 415 574
e 415 492
e 415 772
e 416 456
e 416 476
e 416 666
e 417 807
e 417 570
e 418 980
e 418 823
e 418 869
e 418 662
e 418 544
e 421 933
e 421 625
e 421 636
e 421 901
e 422 611
e 422 818
e 422 504
e 423 934
e 423 603
e 423 633
e 424 879
e 424 633
e 425 723
e 425 695
e 425 546
e 425 745
e 425 860
e 426 707
e 426 694
e 427 631
e 427 922
e 427 577
e 429 864
e 429 973
e 429 989
e 429 922
e 430 692
e 430 834
e 430 721
e 431 757
e 431 812
e 431 619
e 431 897
e 438 914
e 438 457
e 438 615
e 441 999
e 441 877
e 443 591
e 443 729
e 444 608
e 444 460
e 445 582
e 445 738
e 445 833
e 446 852
e 446 865
e 446 524
e 446 770
e 446 769
e 447 844
e 447 580
e 447 757
e 447 631
e 448 940
e 448 908
e 448 568
e 449 812
e 451 919
e 451 870
e 454 769
e 454 814
e 456 472
e 457 870
e 459 723
e 459 765
e 459 549
e 459 853
e 460 736
e 460 834
e 462 463
e 462 914
e 462 954
e 462 576
e 463 676
e 463 499
e 463 715
e 463 990
e 463 754
e 463 509
e 463 578
e 464 794
e 465 492
e 465 694
e 465 931
e 466 943
e 466 572
e 466 895
e 466 780
e 466 515
e 467 816
e 467 560
e 468 701
e 469 625
e 469 875
e 470 844
e 470 925
e 470 547
e 470 896
e 471 790
e 472 891
e 472 568
e 474 942
e 474 798
e 475 695
e 476 708
e 476 823
e 480 681
e 480 935
e 480 607
e 481 547
e 481 823
e 481 752
e 481 822
e 481 848
e 482 956
e 483 975
e 484 511
e 484 645
e 484 496
e 486 590
e 489 827
e 489 975
e 491 541
e 491 1000
e 492 536
e 494 729
e 494 869
e 495 688
e 495 507
e 495 665
e 496 839
e 497 707
e 497 741
e 499 584
e 499 686
e 499 581
e 501 835
e 501 938
e 501 671
e 501 690
e 502 700
e 502 865
e 502 834
e 504 775
e 504 630
e 507 721
e 507 897
e 507 908
e 507 992
e 508 659
e 508 838
e 509 597
e 509 551
e 509 601
e 510 873
e 511 872
e 511 788
e 511 682
e 512 673
e 512 785
e 515 879
e 516 797
e 516 719
e 516 801
e 517 691
e 517 953
e 518 889
e 518 587
e 518 771
e 521 526
e 521 700
e 522 644
e 522 950
e 522 922
e 524 833
e 524 902
e 524 941
e 524 919
e 524 530
e 524 636
e 525 622
e 525 975
e 525 717
e 525 599
e 526 570
e 527 895
e 527 655
e 528 707
e 529 643
e 530 636
e 530 931
e 530 935
e 531 896
e 531 564
e 531 869
e 531 695
e 534 900
e 537 572
e 537 788
e 538 958
e 538 989
e 539 628
e 539 958
e 540 544
e 540 845
e 541 626
e 541 756
e 542 788
e 542 833
e 546 898
e 546 737
e 546 971
e 547 582
e 549 713
e 549 646
e 550 895
e 550 644
e 550 814
e 550 800
e 552 642
e 553 909
e 553 865
e 557 874
e 557 937
e 557 833
e 558 588
e 558 807
e 558 707
e 559 753
e 559 772
e 559 929
e 560 665
e 560 619
e 561 803
e 561 861
e 561 780
e 561 750
e 562 665
e 562 971
e 564 614
e 564 930
e 568 676
e 569 590
e 569 804
e 570 707
e 570 991
e 570 590
e 572 985
e 573 886
e 574 741
e 574 595
e 575 943
e 575 603
e 575 885
e 575 901
e 576 740
e 577 684
e 577 840
e 578 844
e 578 749
e 578 895
e 580 666
e 580 738
e 581 689
e 581 633
e 581 943
e 582 846
e 582 681
e 582 613
e 585 642
e 586 982
e 586 930
e 586 938
e 586 781
e 587 618
e 587 853
e 587 599
e 590 704
e 590 641
e 590 815
e 591 749
e 591 992
e 592 875
e 595 697
e 596 998
e 596 916
e 597 995
e 597 801
e 597 620
e 600 901
e 600 989
e 600 847
e 601 641
e 601 859
e 602 804
e 602 611
e 602 808
e 603 978
e 604 763
e 604 704
e 604 780
e 605 645
e 605 741
e 607 658
e 607 671
e 608 835
e 608 657
e 611 777
e 611 644
e 613 942
e 614 816
e 614 860
e 614 654
e 615 832
e 618 915
e 618 810
e 618 774
e 618 971
e 619 972
e 619 891
e 620 949
e 620 677
e 620 783
e 622 833
e 622 800
e 624 911
e 625 873
e 625 893
e 625 952
e 626 627
e 626 822
e 627 895
e 627 633
e 627 776
e 628 657
e 628 701
e 629 713
e 631 842
e 633 924
e 633 929
e 633 817
e 636 758
e 636 739
e 637 668
e 637 900
e 638 796
e 638 909
e 638 936
e 639 664
e 639 922
e 639 713
e 641 730
e 641 825
e 641 747
e 641 861
e 641 736
e 642 954
e 642 775
e 643 906
e 643 658
e 643 727
e 645 681
e 646 708
e 646 888
e 649 701
e 649 748
e 651 751
e 651 697
e 651 722
e 653 930
e 653 657
e 654 717
e 655 909
e 655 836
e 655 813
e 656 692
e 656 673
e 656 894
e 657 982
e 658 992
e 658 996
e 659 902
e 659 957
e 661 894
e 661 958
e 662 852
e 663 688
e 664 697
e 664 968
e 665 750
e 665 977
e 665 966
e 665 959
e 666 937
e 666 794
e 666 875
e 667 985
e 668 851
e 668 989
e 668 688
e 669 728
e 670 745
e 670 988
e 670 770
e 670 727
e 673 827
e 674 933
e 674 930
e 675 997
e 675 775
e 676 916
e 677 708
e 677 835
e 677 990
e 677 808
e 678 780
e 678 707
e 681 940
e 684 775
e 685 896
e 685 943
e 686 810
e 687 792
e 687 689
e 687 798
e 688 746
e 689 747
e 690 898
e 691 870
e 692 874
e 693 998
e 694 738
e 695 842
e 697 977
e 697 980
e 697 707
e 697 791
e 699 932
e 699 961
e 700 957
e 700 949
e 701 888
e 704 961
e 704 808
e 704 717
e 706 921
e 706 749
e 707 907
e 713 823
e 713 758
e 713 885
e 714 917
e 714 756
e 715 738
e 717 914
e 717 953
e 718 874
e 719 991
e 720 989
e 721 952
e 725 887
e 728 966
e 729 881
e 729 768
e 730 790
e 730 967
e 731 771
e 733 859
e 733 828
e 734 936
e 736 953
e 736 812
e 737 797
e 738 785
e 739 857
e 739 835
e 740 869
e 740 977
e 740 847
e 740 818
e 741 833
e 742 781
e 746 940
e 747 889
e 747 756
e 747 748
e 748 995
e 749 837
e 750 918
e 751 988
e 753 845
e 753 759
e 754 980
e 754 996
e 756 962
e 756 907
e 756 959
e 757 924
e 759 850
e 761 848
e 763 869
e 764 911
e 764 943
e 764 877
e 764 880
e 765 831
e 768 942
e 768 937
e 770 804
e 770 803
e 771 909
e 772 840
e 774 887
e 776 787
e 777 810
e 778 899
e 778 918
e 780 874
e 780 906
e 780 899
e 781 811
e 783 894
e 783 817
e 785 804
e 786 836
e 787 893
e 787 990
e 787 998
e 788 898
e 791 840
e 791 933
e 797 818
e 798 1000
e 800 899
e 801 961
e 803 815
e 804 936
e 810 845
e 811 813
e 811 833
e 815 851
e 816 902
e 816 910
e 822 978
e 822 839
e 823 979
e 825 865
e 825 963
e 826 880
e 826 864
e 827 891
e 827 828
e 828 932
e 830 924
e 831 950
e 837 902
e 837 956
e 839 896
e 840 885
e 844 847
e 845 963
e 846 848
e 846 991
e 851 968
e 852 947
e 855 999
e 855 987
e 857 996
e 864 941
e 869 872
e 872 890
e 873 921
e 873 898
e 874 946
e 877 958
e 877 889
e 884 988
e 884 954
e 885 943
e 885 894
e 886 915
e 888 952
e 889 975
e 891 932
e 893 961
e 897 930
e 899 979
e 902 978
e 907 985
e 909 946
e 910 916
e 914 937
e 914 987
e 915 997
e 915 966
e 917 971
e 919 931
e 921 939
e 922 967
e 929 935
e 931 988
e 932 956
e 936 979
e 952 991
e 971 993
e 972 985
e 977 997
