txt_Ins/graph-1000-620.txt
n 1000
e 0 289
e 0 558
e 0 929
e 0 525
e 0 186
e 1 986
e 1 107
e 1 681
e 1 922
e 1 92
e 2 896
e 2 587
e 2 340
e 3 752
e 3 132
e 3 696
e 4 88
e 4 826
e 4 543
e 4 693
e 4 789
e 4 841
e 6 178
e 6 863
e 6 317
e 7 767
e 7 713
e 7 74
e 8 37
e 8 308
e 8 347
e 8 212
e 9 858
e 9 474
e 9 604
e 11 839
e 11 900
e 11 942
e 11 767
e 11 763
e 11 703
e 11 187
e 12 300
e 12 458
e 12 89
e 12 221
e 12 348
e 12 989
e 12 972
e 13 668
e 13 863
e 13 461
e 13 662
e 14 19
e 14 379
e 14 367
e 14 934
e 14 773
e 14 101
e 16 712
e 16 455
e 16 218
e 16 202
e 16 484
e 16 304
e 17 253
e 17 510
e 17 758
e 17 801
e 17 718
e 17 688
e 17 768
e 17 626
e 17 274
e 17 286
e 18 155
e 18 837
e 18 86
e 19 223
e 19 363
e 19 302
e 19 591
e 19 385
e 19 245
e 20 906
e 20 55
e 20 962
e 20 239
e 20 175
e 20 446
e 21 623
e 21 865
e 21 465
e 21 456
e 23 890
e 23 595
e 23 135
e 23 347
e 23 722
e 24 303
e 24 673
e 24 741
e 24 558
e 24 131
e 26 448
e 26 461
e 26 284
e 28 97
e 28 521
e 28 450
e 28 569
e 28 850
e 28 160
e 28 158
e 28 69
e 29 446
e 29 445
e 29 466
e 30 101
e 30 606
e 30 314
e 30 535
e 31 769
e 31 757
e 31 971
e 31 922
e 31 939
e 31 636
e 32 349
e 32 190
e 32 47
e 33 613
e 33 528
e 33 69
e 33 729
e 35 617
e 35 712
e 35 414
e 35 844
e 36 459
e 36 773
e 36 801
e 36 675
e 36 538
e 36 594
e 36 958
e 36 992
e 37 41
e 37 508
e 37 344
e 37 302
e 38 869
e 38 41
e 38 651
e 39 455
e 39 557
e 39 318
e 40 924
e 40 648
e 40 75
e 40 581
e 40 414
e 40 905
e 41 123
e 41 464
e 41 140
e 41 43
e 42 243
e 42 664
e 42 600
e 42 990
e 42 668
e 43 255
e 43 618
e 45 859
e 45 777
e 45 83
e 45 841
e 45 387
e 45 354
e 46 140
e 46 855
e 46 70
e 46 642
e 46 76
e 46 688
e 46 625
e 47 148
e 47 297
e 47 424
e 47 167
e 47 368
e 48 365
e 48 801
e 48 331
e 48 194
e 49 703
e 49 116
e 49 443
e 49 922
e 49 520
e 49 238
e 50 483
e 50 204
e 50 244
e 50 205
e 52 232
e 52 197
e 52 473
e 52 645
e 52 949
e 53 235
e 53 802
e 53 730
e 53 527
e 53 71
e 53 653
e 53 106
e 53 290
e 53 160
e 55 972
e 55 232
e 55 126
e 55 942
e 55 760
e 55 786
e 57 191
e 57 312
e 57 536
e 57 467
e 57 791
e 57 939
e 57 789
e 58 109
e 58 230
e 58 549
e 58 117
e 58 420
e 58 658
e 59 645
e 59 75
e 59 87
e 59 190
e 59 860
e 60 218
e 60 206
e 60 568
e 60 600
e 60 938
e 60 354
e 60 527
e 60 252
e 61 652
e 61 517
e 61 548
e 61 640
e 61 122
e 61 507
e 65 722
e 65 580
e 65 655
e 65 416
e 66 692
e 66 377
e 66 386
e 66 346
e 66 467
e 66 795
e 66 591
e 67 107
e 67 889
e 67 520
e 69 707
e 69 99
e 69 730
e 69 712
e 69 304
e 70 247
e 70 475
e 70 544
e 71 733
e 71 237
e 71 860
e 71 897
e 71 533
e 73 741
e 73 379
e 73 544
e 74 684
e 74 475
e 74 193
e 74 996
e 75 286
e 75 389
e 75 618
e 75 624
e 75 758
e 76 573
e 76 286
e 76 188
e 76 255
e 76 979
e 77 488
e 77 603
e 77 253
e 77 745
e 77 981
e 77 357
e 78 689
e 78 97
e 78 404
e 78 369
e 78 401
e 78 426
e 78 583
e 80 630
e 80 855
e 80 180
e 80 803
e 81 884
e 81 220
e 81 842
e 82 379
e 82 878
e 82 185
e 82 673
e 82 234
e 82 854
e 83 755
e 83 498
e 83 670
e 83 170
e 83 271
e 83 491
e 84 533
e 84 736
e 84 629
e 84 412
e 84 348
e 84 347
e 85 883
e 85 377
e 85 470
e 85 542
e 85 368
e 85 667
e 86 507
e 86 408
e 87 536
e 87 576
e 87 745
e 87 559
e 87 442
e 87 304
e 88 906
e 88 495
e 89 637
e 89 241
e 91 736
e 91 700
e 91 184
e 92 791
e 92 837
e 92 619
e 93 795
e 93 357
e 93 971
e 93 603
e 94 524
e 94 516
e 94 594
e 95 132
e 95 856
e 95 178
e 96 398
e 96 259
e 96 129
e 97 683
e 97 910
e 97 636
e 97 612
e 97 296
e 97 815
e 98 260
e 98 107
e 98 556
e 99 530
e 99 802
e 99 719
e 99 955
e 100 961
e 100 995
e 100 237
e 100 789
e 100 730
e 101 621
e 101 563
e 101 690
e 102 966
e 102 559
e 102 379
e 102 272
e 103 466
e 103 939
e 103 458
e 105 841
e 105 209
e 105 537
e 106 924
e 106 115
e 106 746
e 107 187
e 107 763
e 107 259
e 107 643
e 108 932
e 108 335
e 108 190
e 108 493
e 108 825
e 108 354
e 109 498
e 109 782
e 110 250
e 110 612
e 110 557
e 111 974
e 111 830
e 111 807
e 113 992
e 113 528
e 113 894
e 115 885
e 115 571
e 115 465
e 115 217
e 115 551
e 115 540
e 115 503
e 115 733
e 115 747
e 115 498
e 116 736
e 116 732
e 116 243
e 116 186
e 116 670
e 117 795
e 117 706
e 117 219
e 117 922
e 118 253
e 118 993
e 118 417
e 118 806
e 119 496
e 119 572
e 119 803
e 119 459
e 119 614
e 119 700
e 120 649
e 120 696
e 120 325
e 121 122
e 121 406
e 121 373
e 121 995
e 121 718
e 121 662
e 122 880
e 122 240
e 122 235
e 123 957
e 123 594
e 123 259
e 123 221
e 125 414
e 125 351
e 125 842
e 126 824
e 126 342
e 128 349
e 128 895
e 128 387
e 128 257
e 128 151
e 128 450
e 129 257
e 129 706
e 129 405
e 131 255
e 131 151
e 131 296
e 131 580
e 132 686
e 132 437
e 132 213
e 135 186
e 135 705
e 135 276
e 140 652
e 140 650
e 140 535
e 145 542
e 145 752
e 145 613
e 145 183
e 145 642
e 145 740
e 145 351
e 145 598
e 148 814
e 148 393
e 149 460
e 149 674
e 149 909
e 151 689
e 151 474
e 151 756
e 151 318
e 151 856
e 152 491
e 152 946
e 152 160
e 152 998
e 152 971
e 152 777
e 153 757
e 153 162
e 153 285
e 155 205
e 155 473
e 155 888
e 155 259
e 155 722
e 155 666
e 155 967
e 157 204
e 157 443
e 157 933
e 157 718
e 157 790
e 158 217
e 158 825
e 158 951
e 159 636
e 159 922
e 159 635
e 159 850
e 159 276
e 160 272
e 160 989
e 161 586
e 161 195
e 161 854
e 161 527
e 162 897
e 162 845
e 162 166
e 162 509
e 163 585
e 163 757
e 163 536
e 163 655
e 164 254
e 164 703
e 164 511
e 164 528
e 165 800
e 165 946
e 165 930
e 165 548
e 165 490
e 166 412
e 166 280
e 167 914
e 167 827
e 167 936
e 167 408
e 169 946
e 169 921
e 169 294
e 169 735
e 169 641
e 170 274
e 170 777
e 170 787
e 171 760
e 171 195
e 171 987
e 171 745
e 172 872
e 172 880
e 172 889
e 172 459
e 173 758
e 173 468
e 173 600
e 173 811
e 173 386
e 173 304
e 174 971
e 174 327
e 174 730
e 174 672
e 175 816
e 175 200
e 176 477
e 176 741
e 176 188
e 176 998
e 176 865
e 178 681
e 178 729
e 178 907
e 180 240
e 180 652
e 180 998
e 180 729
e 180 426
e 180 951
e 180 357
e 183 241
e 183 584
e 183 940
e 184 834
e 184 516
e 184 922
e 185 386
e 185 745
e 186 793
e 186 932
e 186 221
e 186 854
e 186 413
e 186 313
e 186 855
e 187 651
e 187 340
e 188 852
e 188 971
e 188 868
e 188 365
e 189 495
e 189 625
e 189 213
e 189 443
e 189 289
e 189 556
e 190 280
e 190 339
e 190 351
e 190 440
e 191 385
e 191 327
e 191 999
e 191 437
e 191 523
e 191 668
e 193 221
e 193 340
e 193 842
e 194 628
e 194 587
e 194 888
e 194 283
e 195 297
e 195 707
e 197 807
e 197 479
e 197 981
e 198 916
e 198 568
e 198 738
e 199 644
e 199 329
e 199 737
e 200 234
e 200 460
e 200 484
e 200 832
e 201 655
e 201 297
e 201 871
e 201 928
e 202 231
e 202 750
e 202 400
e 203 323
e 203 352
e 203 814
e 204 721
e 204 951
e 204 209
e 204 259
e 204 293
e 204 473
e 204 972
e 205 782
e 205 679
e 205 440
e 205 217
e 206 799
e 206 424
e 207 689
e 207 922
e 207 363
e 207 233
e 207 580
e 208 838
e 208 542
e 208 854
e 209 398
e 209 972
e 209 614
e 210 335
e 210 556
e 210 874
e 210 727
e 211 754
e 211 329
e 211 745
e 211 376
e 211 687
e 212 410
e 212 628
e 212 863
e 213 680
e 213 617
e 213 693
e 215 732
e 215 715
e 215 420
e 217 369
e 217 230
e 217 914
e 217 581
e 218 254
e 218 488
e 218 363
e 218 599
e 219 595
e 219 849
e 219 721
e 219 341
e 219 935
e 220 481
e 220 537
e 220 586
e 220 641
e 220 338
e 220 560
e 220 479
e 221 776
e 221 342
e 221 993
e 221 913
e 221 440
e 222 988
e 222 715
e 222 995
e 222 341
e 222 679
e 222 469
e 222 559
e 222 775
e 222 325
e 223 450
e 223 482
e 223 791
e 223 255
e 223 550
e 225 849
e 225 477
e 225 800
e 225 442
e 225 931
e 227 548
e 227 893
e 227 994
e 229 839
e 229 938
e 229 552
e 229 348
e 230 569
e 230 466
e 230 333
e 230 444
e 231 571
e 231 410
e 231 235
e 231 559
e 232 539
e 232 442
e 232 485
e 233 791
e 233 642
e 234 584
e 234 976
e 234 989
e 234 255
e 235 745
e 237 812
e 237 473
e 238 463
e 238 613
e 238 381
e 238 247
e 238 996
e 238 679
e 239 568
e 239 831
e 240 614
e 240 286
e 240 860
e 240 970
e 240 356
e 241 551
e 241 503
e 241 558
e 241 337
e 241 630
e 242 664
e 242 779
e 242 753
e 243 930
e 243 290
e 244 751
e 244 648
e 244 589
e 245 400
e 245 289
e 245 933
e 245 948
e 247 650
e 247 952
e 248 458
e 248 883
e 248 508
e 248 470
e 248 673
e 248 660
e 249 839
e 249 575
e 249 720
e 249 272
e 249 956
e 250 344
e 250 498
e 250 953
e 250 551
e 252 785
e 252 644
e 253 955
e 253 946
e 254 939
e 254 945
e 254 559
e 254 573
e 255 481
e 255 615
e 255 651
e 257 465
e 257 286
e 257 364
e 257 298
e 257 459
e 258 545
e 258 630
e 258 331
e 258 629
e 258 579
e 259 832
e 259 628
e 259 669
e 259 665
e 259 370
e 260 883
e 260 830
e 261 583
e 261 700
e 261 342
e 261 976
e 261 416
e 261 484
e 261 807
e 262 879
e 262 865
e 262 662
e 262 423
e 262 719
e 262 653
e 262 827
e 265 721
e 265 865
e 265 920
e 268 511
e 268 529
e 268 271
e 268 589
e 269 779
e 269 790
e 269 829
e 269 961
e 270 572
e 270 692
e 270 644
e 270 367
e 271 706
e 271 776
e 272 779
e 272 992
e 272 424
e 274 981
e 274 353
e 274 995
e 274 822
e 275 568
e 275 724
e 275 994
e 275 381
e 275 730
e 275 509
e 276 540
e 276 640
e 276 899
e 276 841
e 278 995
e 278 644
e 278 790
e 278 836
e 279 618
e 279 843
e 279 960
e 279 660
e 280 807
e 280 945
e 280 546
e 280 971
e 283 293
e 283 887
e 283 829
e 283 825
e 283 992
e 283 793
e 283 325
e 284 581
e 284 998
e 284 642
e 285 726
e 285 506
e 285 400
e 286 962
e 286 591
e 286 346
e 286 661
e 289 775
e 289 942
e 289 484
e 289 999
e 289 372
e 289 666
e 289 470
e 290 878
e 290 786
e 290 873
e 292 663
e 292 813
e 292 894
e 292 415
e 293 446
e 293 826
e 294 455
e 294 356
e 296 440
e 296 356
e 296 346
e 296 335
e 296 381
e 297 679
e 297 413
e 298 962
e 298 477
e 298 558
e 298 557
e 298 995
e 298 934
e 298 485
e 300 425
e 300 615
e 300 364
e 302 400
e 302 445
e 303 688
e 303 654
e 304 764
e 304 590
e 307 350
e 307 916
e 307 833
e 307 849
e 307 430
e 308 527
e 308 410
e 312 583
e 312 831
e 312 470
e 313 933
e 313 900
e 313 594
e 313 544
e 314 453
e 314 698
e 314 475
e 314 672
e 315 460
e 315 724
e 315 922
e 315 700
e 315 993
e 316 369
e 316 525
e 316 860
e 317 730
e 317 905
e 317 571
e 318 922
e 318 541
e 318 717
e 321 662
e 321 754
e 321 907
e 321 323
e 323 635
e 325 812
e 325 679
e 325 692
e 325 681
e 325 353
e 325 461
e 327 615
e 327 503
e 329 816
e 329 751
e 330 353
e 330 670
e 330 962
e 331 412
e 331 548
e 331 550
e 331 855
e 331 692
e 333 573
e 333 672
e 335 744
e 336 385
e 336 849
e 336 677
e 336 628
e 336 918
e 337 992
e 337 958
e 337 448
e 338 623
e 338 517
e 338 673
e 339 841
e 339 676
e 339 406
e 339 784
e 339 872
e 339 404
e 339 494
e 340 917
e 340 656
e 340 893
e 340 873
e 341 965
e 342 368
e 342 751
e 342 714
e 342 645
e 342 814
e 342 557
e 342 898
e 344 989
e 344 549
e 346 541
e 346 937
e 346 375
e 346 789
e 346 907
e 347 921
e 347 989
e 347 986
e 347 915
e 348 369
e 349 676
e 349 561
e 350 753
e 350 841
e 350 640
e 350 444
e 351 510
e 351 417
e 351 999
e 351 752
e 351 762
e 352 917
e 352 637
e 352 910
e 353 872
e 353 482
e 353 455
e 353 496
e 354 776
e 354 641
e 356 958
e 356 575
e 357 754
e 362 700
e 362 577
e 362 412
e 363 540
e 363 679
e 363 842
e 364 869
e 364 679
e 364 545
e 365 989
e 365 705
e 365 378
e 365 514
e 367 717
e 368 529
e 368 528
e 369 978
e 370 612
e 370 465
e 370 785
e 370 583
e 372 726
e 372 591
e 372 381
e 373 624
e 373 670
e 373 664
e 375 413
e 375 498
e 376 544
e 376 526
e 377 789
e 377 890
e 378 744
e 378 549
e 379 465
e 379 795
e 379 440
e 381 835
e 381 488
e 381 732
e 383 481
e 383 640
e 383 685
e 385 422
e 385 430
e 385 849
e 385 527
e 385 625
e 386 960
e 387 574
e 389 952
e 389 539
e 389 712
e 389 934
e 393 420
e 393 463
e 395 549
e 395 763
e 395 715
e 396 733
e 396 978
e 396 901
e 398 984
e 398 822
e 400 500
e 400 594
e 400 557
e 401 589
e 401 900
e 401 703
e 404 984
e 404 643
e 404 849
e 404 545
e 405 729
e 405 732
e 406 886
e 406 568
e 408 649
e 409 690
e 409 483
e 409 437
e 409 430
e 410 649
e 410 967
e 410 533
e 412 896
e 413 745
e 413 988
e 413 806
e 414 573
e 414 491
e 414 771
e 415 455
e 415 475
e 415 665
e 416 806
e 416 569
e 417 979
e 417 822
e 417 868
e 417 661
e 417 543
e 420 932
e 420 624
e 420 635
e 420 900
e 421 610
e 421 817
e 421 503
e 422 933
e 422 602
e 422 632
e 423 878
e 423 632
e 424 722
e 424 694
e 424 545
e 424 744
e 424 859
e 425 706
e 425 693
e 426 630
e 426 921
e 426 576
e 428 863
e 428 972
e 428 988
e 428 921
e 429 691
e 429 833
e 429 720
e 430 756
e 430 811
e 430 618
e 430 896
e 437 913
e 437 456
e 437 614
e 440 998
e 440 876
e 442 590
e 442 728
e 443 607
e 443 459
e 444 581
e 444 737
e 444 832
e 445 851
e 445 864
e 445 523
e 445 769
e 445 768
e 446 843
e 446 579
e 446 756
e 446 630
e 447 939
e 447 907
e 447 567
e 448 811
e 450 918
e 450 869
e 453 768
e 453 813
e 455 471
e 456 869
e 458 722
e 458 764
e 458 548
e 458 852
e 459 735
e 459 833
e 461 462
e 461 913
e 461 953
e 461 575
e 462 675
e 462 498
e 462 714
e 462 989
e 462 753
e 462 508
e 462 577
e 463 793
e 464 491
e 464 693
e 464 930
e 465 942
e 465 571
e 465 894
e 465 779
e 465 514
e 466 815
e 466 559
e 467 700
e 468 624
e 468 874
e 469 843
e 469 924
e 469 546
e 469 895
e 470 789
e 471 890
e 471 567
e 473 941
e 473 797
e 474 694
e 475 707
e 475 822
e 479 680
e 479 934
e 479 606
e 480 546
e 480 822
e 480 751
e 480 821
e 480 847
e 481 955
e 482 974
e 483 510
e 483 644
e 483 495
e 485 589
e 488 826
e 488 974
e 490 540
e 490 999
e 491 535
e 493 728
e 493 868
e 494 687
e 494 506
e 494 664
e 495 838
e 496 706
e 496 740
e 498 583
e 498 685
e 498 580
e 500 834
e 500 937
e 500 670
e 500 689
e 501 699
e 501 864
e 501 833
e 503 774
e 503 629
e 506 720
e 506 896
e 506 907
e 506 991
e 507 658
e 507 837
e 508 596
e 508 550
e 508 600
e 509 872
e 510 871
e 510 787
e 510 681
e 511 672
e 511 784
e 514 878
e 515 796
e 515 718
e 515 800
e 516 690
e 516 952
e 517 888
e 517 586
e 517 770
e 520 525
e 520 699
e 521 643
e 521 949
e 521 921
e 523 832
e 523 901
e 523 940
e 523 918
e 523 529
e 523 635
e 524 621
e 524 974
e 524 716
e 524 598
e 525 569
e 526 894
e 526 654
e 527 706
e 528 642
e 529 635
e 529 930
e 529 934
e 530 895
e 530 563
e 530 868
e 530 694
e 533 899
e 536 571
e 536 787
e 537 957
e 537 988
e 538 627
e 538 957
e 539 543
e 539 844
e 540 625
e 540 755
e 541 787
e 541 832
e 545 897
e 545 736
e 545 970
e 546 581
e 548 712
e 548 645
e 549 894
e 549 643
e 549 813
e 549 799
e 551 641
e 552 908
e 552 864
e 556 873
e 556 936
e 556 832
e 557 587
e 557 806
e 557 706
e 558 752
e 558 771
e 558 928
e 559 664
e 559 618
e 560 802
e 560 860
e 560 779
e 560 749
e 561 664
e 561 970
e 563 613
e 563 929
e 567 675
e 568 589
e 568 803
e 569 706
e 569 990
e 569 589
e 571 984
e 572 885
e 573 740
e 573 594
e 574 942
e 574 602
e 574 884
e 574 900
e 575 739
e 576 683
e 576 839
e 577 843
e 577 748
e 577 894
e 579 665
e 579 737
e 580 688
e 580 632
e 580 942
e 581 845
e 581 680
e 581 612
e 584 641
e 585 981
e 585 929
e 585 937
e 585 780
e 586 617
e 586 852
e 586 598
e 589 703
e 589 640
e 589 814
e 590 748
e 590 991
e 591 874
e 594 696
e 595 997
e 595 915
e 596 994
e 596 800
e 596 619
e 599 900
e 599 988
e 599 846
e 600 640
e 600 858
e 601 803
e 601 610
e 601 807
e 602 977
e 603 762
e 603 703
e 603 779
e 604 644
e 604 740
e 606 657
e 606 670
e 607 834
e 607 656
e 610 776
e 610 643
e 612 941
e 613 815
e 613 859
e 613 653
e 614 831
e 617 914
e 617 809
e 617 773
e 617 970
e 618 971
e 618 890
e 619 948
e 619 676
e 619 782
e 621 832
e 621 799
e 623 910
e 624 872
e 624 892
e 624 951
e 625 626
e 625 821
e 626 894
e 626 632
e 626 775
e 627 656
e 627 700
e 628 712
e 630 841
e 632 923
e 632 928
e 632 816
e 635 757
e 635 738
e 636 667
e 636 899
e 637 795
e 637 908
e 637 935
e 638 663
e 638 921
e 638 712
e 640 729
e 640 824
e 640 746
e 640 860
e 640 735
e 641 953
e 641 774
e 642 905
e 642 657
e 642 726
e 644 680
e 645 707
e 645 887
e 648 700
e 648 747
e 650 750
e 650 696
e 650 721
e 652 929
e 652 656
e 653 716
e 654 908
e 654 835
e 654 812
e 655 691
e 655 672
e 655 893
e 656 981
e 657 991
e 657 995
e 658 901
e 658 956
e 660 893
e 660 957
e 661 851
e 662 687
e 663 696
e 663 967
e 664 749
e 664 976
e 664 965
e 664 958
e 665 936
e 665 793
e 665 874
e 666 984
e 667 850
e 667 988
e 667 687
e 668 727
e 669 744
e 669 987
e 669 769
e 669 726
e 672 826
e 673 932
e 673 929
e 674 996
e 674 774
e 675 915
e 676 707
e 676 834
e 676 989
e 676 807
e 677 779
e 677 706
e 680 939
e 683 774
e 684 895
e 684 942
e 685 809
e 686 791
e 686 688
e 686 797
e 687 745
e 688 746
e 689 897
e 690 869
e 691 873
e 692 997
e 693 737
e 694 841
e 696 976
e 696 979
e 696 706
e 696 790
e 698 931
e 698 960
e 699 956
e 699 948
e 700 887
e 703 960
e 703 807
e 703 716
e 705 920
e 705 748
e 706 906
e 712 822
e 712 757
e 712 884
e 713 916
e 713 755
e 714 737
e 716 913
e 716 952
e 717 873
e 718 990
e 719 988
e 720 951
e 724 886
e 727 965
e 728 880
e 728 767
e 729 789
e 729 966
e 730 770
e 732 858
e 732 827
e 733 935
e 735 952
e 735 811
e 736 796
e 737 784
e 738 856
e 738 834
e 739 868
e 739 976
e 739 846
e 739 817
e 740 832
e 741 780
e 745 939
e 746 888
e 746 755
e 746 747
e 747 994
e 748 836
e 749 917
e 750 987
e 752 844
e 752 758
e 753 979
e 753 995
e 755 961
e 755 906
e 755 958
e 756 923
e 758 849
e 760 847
e 762 868
e 763 910
e 763 942
e 763 876
e 763 879
e 764 830
e 767 941
e 767 936
e 769 803
e 769 802
e 770 908
e 771 839
e 773 886
e 775 786
e 776 809
e 777 898
e 777 917
e 779 873
e 779 905
e 779 898
e 780 810
e 782 893
e 782 816
e 784 803
e 785 835
e 786 892
e 786 989
e 786 997
e 787 897
e 790 839
e 790 932
e 796 817
e 797 999
e 799 898
e 800 960
e 802 814
e 803 935
e 809 844
e 810 812
e 810 832
e 814 850
e 815 901
e 815 909
e 821 977
e 821 838
e 822 978
e 824 864
e 824 962
e 825 879
e 825 863
e 826 890
e 826 827
e 827 931
e 829 923
e 830 949
e 836 901
e 836 955
e 838 895
e 839 884
e 843 846
e 844 962
e 845 847
e 845 990
e 850 967
e 851 946
e 854 998
e 854 986
e 856 995
e 863 940
e 868 871
e 871 889
e 872 920
e 872 897
e 873 945
e 876 957
e 876 888
e 883 987
e 883 953
e 884 942
e 884 893
e 885 914
e 887 951
e 888 974
e 890 931
e 892 960
e 896 929
e 898 978
e 901 977
e 906 984
e 908 945
e 909 915
e 913 936
e 913 986
e 914 996
e 914 965
e 916 970
e 918 930
e 920 938
e 921 966
e 928 934
e 930 987
e 931 955
e 935 978
e 951 990
e 970 992
e 971 984
e 976 996
